InSe_mp-20485_computed
1.0
        3.8800001144         0.0000000000         0.0000000000
       -1.9400000572         3.3601786658         0.0000000000
        0.0000000000         0.0000000000        20.0000000000
    S   Se   In
    1    1    2
Direct
     0.333330009         0.666670034         0.596800041
     0.333330009         0.666670034         0.903199959
     0.666670015         0.333330015         0.830389977
     0.666670015         0.333330015         0.669610023
