SYSTEM = Bulk Si
PREC = Accurate
ISTART = 0  # new calculation
ICHARG = 2

ENCUT = 320  #130% bigger than ENMAX
ISMEAR = 0
SIGMA = 0.1
EDIFF = 1E-7

#ISIF = 3  #relaxing atoms,cell shape,cell volume
#IBRION = 2  # CG algoor
#NSW = 200
#EDIFFG = -1E-2

ISYM = 1
LWAVE = .FALSE.
LCHARG = .TRUE.

NCORE = 2



