Si                                      
   1.00000000000000     
     5.4667189884370986    0.0000000000000000    0.0000000000000000
     0.0000000000000000    5.4667189884370986    0.0000000000000000
     0.0000000000000000    0.0000000000000000    5.4667189884370986
   Si
     8
Direct
  0.0000000000000000  0.0000000000000000  0.0000000000000000
  0.0000000000000000  0.5000000000000000  0.5000000000000000
  0.5000000000000000  0.5000000000000000  0.0000000000000000
  0.5000000000000000  0.0000000000000000  0.5000000000000000
  0.7499999779999982  0.2500000000000000  0.7499999779999982
  0.2500000000000000  0.2500000000000000  0.2500000000000000
  0.2500000000000000  0.7499999779999982  0.7499999779999982
  0.7499999779999982  0.7499999779999982  0.2500000000000000
 
  0.00000000E+00  0.00000000E+00  0.00000000E+00
  0.00000000E+00  0.00000000E+00  0.00000000E+00
  0.00000000E+00  0.00000000E+00  0.00000000E+00
  0.00000000E+00  0.00000000E+00  0.00000000E+00
  0.00000000E+00  0.00000000E+00  0.00000000E+00
  0.00000000E+00  0.00000000E+00  0.00000000E+00
  0.00000000E+00  0.00000000E+00  0.00000000E+00
  0.00000000E+00  0.00000000E+00  0.00000000E+00
